data/mip_solutions/furman_sahinidis/transshipment/10sp-ol1_gurobi.sol
Elapsed time: 0.105140209198
Nodes explored: 0
Upper bound: 14.0
Lower bound: 14.0
y[0,0]=1
y[0,3]=1
y[0,6]=1
y[1,0]=1
y[1,4]=1
y[2,1]=1
y[3,0]=1
y[3,1]=1
y[3,2]=1
y[3,4]=1
y[3,5]=1
y[3,6]=1
y[4,0]=1
y[4,4]=1
q[0,0,0]=10.7
q[0,0,1]=4.32
q[0,0,2]=0.88
q[0,0,3]=1.575
q[0,3,1]=1.2
q[0,3,2]=0.6
q[0,3,3]=2.4
q[0,3,4]=1.2
q[0,3,5]=1.2
q[0,6,7]=5.625
q[1,0,1]=7.68
q[1,4,1]=7.32
q[2,1,1]=0.98
q[2,1,2]=0.42
q[2,1,4]=0.2
q[2,1,5]=1.4
q[2,1,6]=0.2
q[3,0,2]=1.12
q[3,0,3]=6.425
q[3,1,2]=0.28
q[3,1,3]=2.8
q[3,1,4]=1.2
q[3,1,6]=1.55
q[3,2,3]=4.375
q[3,2,4]=3.5
q[3,4,2]=2.0
q[3,5,6]=4.5
q[3,5,7]=7.5
q[3,6,7]=3.85
q[4,0,0]=7.3
q[4,4,0]=18.0
q[4,4,1]=4.68
r[0,2]=0.48
r[0,4]=0.025
r[0,5]=0.825
r[0,6]=1.625
r[0,7]=4.125
r[2,2]=0.22
r[2,4]=0.8
r[2,5]=1.0
r[3,5]=2.1
r[3,6]=8.9
r[3,7]=11.35
r[4,1]=4.68
